Academic license - for non-commercial use only
Gurobi Optimizer version 9.0.3 build v9.0.3rc0 (mac64)
Optimize a model with 43946 rows, 40320 columns and 230780 nonzeros
Model fingerprint: 0x51b72e79
Variable types: 0 continuous, 40320 integer (40320 binary)
Coefficient statistics:
  Matrix range     [1e+00, 1e+00]
  Objective range  [1e+01, 3e+04]
  Bounds range     [1e+00, 1e+00]
  RHS range        [1e+00, 2e+02]
Presolve removed 20 rows and 20 columns
Presolve time: 0.50s
Presolved: 43926 rows, 40300 columns, 230740 nonzeros
Variable types: 0 continuous, 40300 integer (40300 binary)
Found heuristic solution: objective 252886.00000

Concurrent LP optimizer: dual simplex and barrier
Showing barrier log only...

Root barrier log...

Ordering time: 0.12s

Barrier statistics:
 Dense cols : 160
 AA' NZ     : 2.012e+05
 Factor NZ  : 8.978e+05 (roughly 40 MBytes of memory)
 Factor Ops : 4.390e+07 (less than 1 second per iteration)
 Threads    : 3

                  Objective                Residual
Iter       Primal          Dual         Primal    Dual     Compl     Time
   0   1.44728798e+07 -7.23299652e+04  5.83e+01 0.00e+00  8.76e+02     1s
   1   3.70509546e+05 -4.21265486e+06  4.06e-01 9.07e+02  4.48e+01     1s
   2   2.93487767e+05 -3.30482607e+05  5.74e-02 1.29e+02  5.54e+00     1s
   3   2.78592315e+05  1.10922766e+05  2.51e-02 8.04e+01  1.43e+00     1s
   4   2.49121645e+05  2.02366458e+05  2.13e-03 9.03e+01  3.91e-01     1s
   5   2.43014138e+05  2.17660725e+05  1.39e-03 3.69e+01  2.09e-01     1s
   6   2.39467699e+05  2.23259920e+05  1.03e-03 1.69e+01  1.32e-01     1s
   7   2.35158139e+05  2.25273028e+05  6.02e-04 1.04e+01  8.09e-02     1s
   8   2.33775556e+05  2.25899168e+05  4.72e-04 8.40e+00  6.45e-02     1s
   9   2.32301771e+05  2.26463797e+05  3.36e-04 6.57e+00  4.79e-02     1s
  10   2.31525220e+05  2.26797383e+05  2.65e-04 5.50e+00  3.88e-02     1s
  11   2.30877441e+05  2.26977029e+05  2.04e-04 4.97e+00  3.21e-02     1s
  12   2.30675377e+05  2.27386920e+05  1.86e-04 3.73e+00  2.70e-02     2s
  13   2.30195569e+05  2.27632492e+05  1.43e-04 2.95e+00  2.10e-02     2s
  14   2.29795804e+05  2.27772492e+05  1.09e-04 2.49e+00  1.66e-02     2s
  15   2.29622547e+05  2.27962826e+05  9.29e-05 1.91e+00  1.36e-02     2s
  16   2.29429249e+05  2.28072031e+05  7.63e-05 1.57e+00  1.11e-02     2s
  17   2.29220263e+05  2.28142326e+05  5.76e-05 1.35e+00  8.87e-03     2s
  18   2.29136695e+05  2.28260553e+05  5.01e-05 9.76e-01  7.18e-03     2s
  19   2.29072751e+05  2.28305517e+05  4.43e-05 8.27e-01  6.29e-03     2s
  20   2.28960309e+05  2.28357878e+05  3.44e-05 6.52e-01  4.94e-03     2s
  21   2.28897009e+05  2.28390146e+05  2.91e-05 5.41e-01  4.15e-03     2s
  22   2.28863321e+05  2.28397855e+05  2.63e-05 5.15e-01  3.82e-03     2s
  23   2.28807194e+05  2.28429872e+05  2.16e-05 4.06e-01  3.09e-03     2s
  24   2.28752352e+05  2.28441111e+05  1.70e-05 3.69e-01  2.56e-03     2s
  25   2.28717353e+05  2.28463799e+05  1.41e-05 2.98e-01  2.08e-03     2s
  26   2.28694235e+05  2.28486017e+05  1.21e-05 2.24e-01  1.71e-03     2s
  27   2.28682390e+05  2.28491558e+05  1.10e-05 2.05e-01  1.56e-03     2s
  28   2.28664842e+05  2.28507535e+05  9.50e-06 1.50e-01  1.28e-03     2s
  29   2.28653194e+05  2.28518533e+05  8.49e-06 1.11e-01  1.10e-03     2s
  30   2.28638469e+05  2.28522695e+05  7.27e-06 9.62e-02  9.42e-04     2s
  31   2.28619604e+05  2.28527203e+05  5.75e-06 8.15e-02  7.53e-04     2s
  32   2.28608650e+05  2.28530285e+05  4.86e-06 7.03e-02  6.39e-04     2s
  33   2.28602483e+05  2.28533964e+05  4.36e-06 5.76e-02  5.58e-04     2s
  34   2.28595116e+05  2.28534478e+05  3.75e-06 5.56e-02  4.95e-04     2s
  35   2.28585207e+05  2.28537471e+05  2.88e-06 4.53e-02  3.90e-04     2s
  36   2.28575180e+05  2.28539690e+05  2.03e-06 3.75e-02  2.91e-04     2s
  37   2.28573695e+05  2.28543430e+05  1.91e-06 2.50e-02  2.46e-04     2s
  38   2.28572615e+05  2.28543925e+05  1.82e-06 2.34e-02  2.33e-04     2s
  39   2.28568483e+05  2.28544739e+05  1.47e-06 2.07e-02  1.93e-04     2s
  40   2.28563369e+05  2.28545310e+05  1.04e-06 1.88e-02  1.48e-04     2s
  41   2.28561196e+05  2.28546488e+05  8.48e-07 1.49e-02  1.20e-04     2s
  42   2.28558884e+05  2.28547700e+05  6.45e-07 1.09e-02  9.14e-05     2s
  43   2.28556163e+05  2.28548607e+05  4.09e-07 7.98e-03  6.19e-05     2s
  44   2.28552956e+05  2.28548904e+05  1.50e-07 6.99e-03  3.38e-05     2s
  45   2.28552602e+05  2.28549097e+05  1.22e-07 6.34e-03  2.94e-05     3s
  46   2.28552386e+05  2.28549970e+05  1.02e-07 3.49e-03  2.00e-05     3s
  47   2.28551788e+05  2.28550470e+05  5.37e-08 1.91e-03  1.09e-05     3s
  48   2.28551302e+05  2.28551070e+05  1.50e-08 4.41e-05  1.86e-06     3s
  49   2.28551096e+05  2.28551096e+05  2.27e-09 1.13e-08  8.99e-10     3s

Barrier solved model in 49 iterations and 2.62 seconds
Optimal objective 2.28551096e+05


Solved with barrier

Root relaxation: objective 2.285511e+05, 3334 iterations, 2.00 seconds

    Nodes    |    Current Node    |     Objective Bounds      |     Work
 Expl Unexpl |  Obj  Depth IntInf | Incumbent    BestBd   Gap | It/Node Time

     0     0 228551.096    0 3818 252886.000 228551.096  9.62%     -    3s
H    0     0                    238912.00000 228551.096  4.34%     -    4s
H    0     0                    230950.00000 228551.096  1.04%     -    4s
H    0     0                    230888.00000 228551.096  1.01%     -    7s
     0     0 228560.180    0 3872 230888.000 228560.180  1.01%     -    9s
     0     0 228560.602    0 3849 230888.000 228560.602  1.01%     -   10s
     0     0 228568.185    0 4020 230888.000 228568.185  1.00%     -   13s
     0     0 228568.888    0 4017 230888.000 228568.888  1.00%     -   14s
     0     0 228568.895    0 4014 230888.000 228568.895  1.00%     -   14s
     0     0 228577.770    0 4070 230888.000 228577.770  1.00%     -   18s
     0     0 228578.708    0 4027 230888.000 228578.708  1.00%     -   19s
     0     0 228578.745    0 4029 230888.000 228578.745  1.00%     -   19s
     0     0 228578.749    0 4028 230888.000 228578.749  1.00%     -   19s
     0     0 228585.076    0 4171 230888.000 228585.076  1.00%     -   22s
     0     0 228585.159    0 4163 230888.000 228585.159  1.00%     -   23s
     0     0 228585.160    0 4165 230888.000 228585.160  1.00%     -   23s
     0     0 228591.199    0 4220 230888.000 228591.199  0.99%     -   25s
     0     0 228591.717    0 4224 230888.000 228591.717  0.99%     -   26s
     0     0 228591.732    0 4218 230888.000 228591.732  0.99%     -   26s
     0     0 228601.378    0 4218 230888.000 228601.378  0.99%     -   28s
     0     0 228659.804    0 4183 230888.000 228659.804  0.97%     -   33s
     0     0 228659.804    0 4221 230888.000 228659.804  0.97%     -   34s
     0     0 228659.804    0 4055 230888.000 228659.804  0.97%     -   36s
     0     0 228659.804    0 4057 230888.000 228659.804  0.97%     -   37s
     0     0 228659.804    0 4058 230888.000 228659.804  0.97%     -   37s
     0     0 228659.804    0 4228 230888.000 228659.804  0.97%     -   39s
     0     0 228659.804    0 4239 230888.000 228659.804  0.97%     -   40s
     0     0 228659.804    0 4242 230888.000 228659.804  0.97%     -   40s
     0     0 228659.804    0 4243 230888.000 228659.804  0.97%     -   40s
     0     0 228659.804    0 4248 230888.000 228659.804  0.97%     -   42s
     0     0 228659.804    0 4248 230888.000 228659.804  0.97%     -   43s
     0     0 228659.804    0 4249 230888.000 228659.804  0.97%     -   43s
     0     0 228659.804    0 4248 230888.000 228659.804  0.97%     -   43s
     0     0 228659.804    0 4457 230888.000 228659.804  0.97%     -   47s
     0     0 228659.804    0 4454 230888.000 228659.804  0.97%     -   48s
     0     2 228659.804    0 4454 230888.000 228659.804  0.97%     -   83s
     1     4 228706.565    1 4243 230888.000 228659.804  0.97%  4874   94s
     3     8 228798.797    2 4521 230888.000 228707.326  0.94%  6760  103s
    11    16 228930.837    4 4507 230888.000 228799.190  0.90%  3597  108s
    15    20 228928.057    4 4072 230888.000 228800.482  0.90%  3052  110s
    30    36 229337.198    8 4083 230888.000 228800.482  0.90%  2173  116s
    39    46 229277.444    9 4191 230888.000 228800.482  0.90%  2146  122s
H   49    50                    230176.00000 228800.482  0.60%  1860  124s
    51    56 229073.642   10 3865 230176.000 228800.482  0.60%  1868  125s
    68    72 229711.889   13 3130 230176.000 228800.482  0.60%  1641  132s
    92   100 229201.871   14 4156 230176.000 228800.482  0.60%  1335  136s
   107   110 229239.704   15 3939 230176.000 228800.482  0.60%  1176  146s
   125   133 229209.242   15 4159 230176.000 228800.482  0.60%  1116  150s
   148   145     cutoff   21      230176.000 228800.482  0.60%  1049  157s
   193   198 229361.037   25 3872 230176.000 228800.482  0.60%   888  160s
H  248   222                    229985.00000 228800.482  0.52%   746  161s
   251   233 229443.965   34 4005 229985.000 228800.482  0.52%   740  165s
H  281   233                    229879.00000 228800.482  0.47%   703  165s
H  284   233                    229859.00000 228800.482  0.46%   696  165s
   306   220 229494.382   53 3421 229859.000 228800.482  0.46%   688  171s
   340   232 229496.577   58 3418 229859.000 228800.482  0.46%   674  176s
   409   315 229571.443   84 2548 229859.000 228800.482  0.46%   608  180s
   526   432 229675.842  121 2242 229859.000 228800.482  0.46%   507  185s
   678   508 229756.500  167 2186 229859.000 228800.482  0.46%   436  192s
   717   511 229800.763  197 2265 229859.000 228943.838  0.40%   425  197s
   734   534 229526.102    4 4019 229859.000 228943.838  0.40%   447  201s
   761   547 229558.667    5 3551 229859.000 228943.838  0.40%   448  207s
   825   592 229672.068    7 4491 229859.000 228943.838  0.40%   435  213s
   854   643 229795.342    9 4065 229859.000 228943.838  0.40%   439  218s
   937   694     cutoff    9      229859.000 229064.000  0.35%   422  221s
   992   732 229132.277    7 4078 229859.000 229064.000  0.35%   416  225s
  1055   733 229685.000   96 4454 229859.000 229064.000  0.35%   403  246s
  1057   734 229638.000   33 3811 229859.000 229064.000  0.35%   402  252s
  1058   735 229656.000  109 4454 229859.000 229064.000  0.35%   401  256s
  1062   738 229537.294   74 4444 229859.000 229064.000  0.35%   400  262s
  1063   741 229064.000   13 4224 229859.000 229064.000  0.35%   410  286s
  1065   745 229064.000   14 4501 229859.000 229064.000  0.35%   420  300s

Cutting planes:
  Gomory: 3
  Zero half: 120

Explored 1069 nodes (463494 simplex iterations) in 300.06 seconds
Thread count was 8 (of 8 available processors)

Solution count 8: 229859 229879 229985 ... 252886

Time limit reached
Best objective 2.298590000000e+05, best bound 2.290640000000e+05, gap 0.3459%

User-callback calls 68186, time in user-callback 0.37 sec
Solution written to /Users/mdeboute/Desktop/Etudes/Master/M2/S9/GOPP/Projet/multi-period-flp/solution/instMulti_I20_J250_T8_0_result.txt
